# Crystalline silicon : computation of the optimal lattice parameter
# Convergence with respect to the number of k points.

ndtset 1

#Optimization of the lattice parameters
optcell 0
#no relaxation of the atoms
ionmov  0
#do not move ions
ntime 10
dilatmx 1.05
ecutsm  0.5

#response-function calculation, with q = 0
rfphon 1
rfatpol 1 2
rfdir 1 1 1
nqpt 1
qpt 0 0 0
irdwfk 1         # This is to speed up the calculation, by restarting
                  # from previous wavefunctions, transferred from the old 
                  # to the new k-points.




#Definition of the k-point grids
kptopt 2          # Option for the automatic generation of k points, taking
                  # into account the symmetry
nshiftk 4
shiftk  0.5 0.5 0.5  # These shifts will be the same for all grids
        0.5 0.0 0.0
        0.0 0.5 0.0
        0.0 0.0 0.5

ngkpt  10 10 10 

#Definition of the unit cell
acell 3*1.0200645510E+01          # This is equivalent to cubic latice param obtained from the relaxation run
rprim  0.0  0.5  0.5   # FCC primitive vectors (to be scaled by acell)
       0.5  0.0  0.5   
       0.5  0.5  0.0

#Definition of the atom types
ntypat 1          # There is only one type of atom
znucl 14          # The keyword "znucl" refers to the atomic number of the 
                  # possible type(s) of atom. The pseudopotential(s) 
                  # mentioned in the "files" file must correspond
                  # to the type(s) of atom. Here, the only type is Silicon.
                         

#Definition of the atoms
natom 2           # There are two atoms
typat 1 1         # They both are of type 1, that is, Silicon.

xred

0.0 0.0 0.0
0.25 0.25 0.25

#Definition of the planewave basis set
ecut 50.0

#Definition of the SCF procedure
nstep 10          # Maximal number of SCF cycles
toldfe 1.0d-6     # Will stop when, twice in a row, the difference 
                  # between two consecutive evaluations of total energy 
                  # differ by less than toldfe (in Hartree) 
                  # This value is way too large for most realistic studies of materials
diemac 12.0       # Although this is not mandatory, it is worth to
                  # precondition the SCF cycle. The model dielectric
                  # function used as the standard preconditioner
                  # is described in the "dielng" input variable section.
                  # Here, we follow the prescription for bulk silicon.
